-147.0 6.0 1.0 4.0 0.0 6.0 7.0 9.0 3.0 8.0 8.0 5.0 10.0 10.0 4.0 5.0 1.0 10.0 2.0 9.0 9.0 6.0 7.0 5.0 5.0 7.0 
6.0 -126.0 3.0 5.0 2.0 1.0 10.0 10.0 1.0 5.0 9.0 1.0 10.0 4.0 10.0 9.0 8.0 5.0 9.0 6.0 4.0 1.0 7.0 0.0 0.0 0.0 
1.0 3.0 -119.0 10.0 4.0 10.0 5.0 1.0 1.0 3.0 9.0 0.0 0.0 9.0 10.0 7.0 10.0 3.0 1.0 4.0 7.0 6.0 8.0 0.0 1.0 6.0 
4.0 5.0 10.0 -134.0 1.0 7.0 9.0 1.0 1.0 10.0 4.0 10.0 5.0 10.0 10.0 5.0 1.0 4.0 1.0 9.0 2.0 3.0 0.0 8.0 7.0 7.0 
0.0 2.0 4.0 1.0 -115.0 10.0 5.0 10.0 1.0 9.0 9.0 4.0 8.0 3.0 9.0 6.0 2.0 2.0 4.0 10.0 5.0 1.0 1.0 4.0 2.0 3.0 
6.0 1.0 10.0 7.0 10.0 -123.0 4.0 9.0 8.0 8.0 7.0 7.0 4.0 4.0 1.0 1.0 0.0 3.0 9.0 3.0 2.0 1.0 5.0 5.0 2.0 6.0 
7.0 10.0 5.0 9.0 5.0 4.0 -128.0 8.0 5.0 0.0 2.0 3.0 2.0 5.0 1.0 1.0 6.0 10.0 7.0 3.0 6.0 5.0 7.0 0.0 8.0 9.0 
9.0 10.0 1.0 1.0 10.0 9.0 8.0 -149.0 5.0 10.0 9.0 2.0 5.0 1.0 9.0 4.0 10.0 3.0 5.0 7.0 8.0 6.0 2.0 10.0 2.0 3.0 
3.0 1.0 1.0 1.0 1.0 8.0 5.0 5.0 -137.0 9.0 10.0 5.0 6.0 4.0 1.0 10.0 6.0 2.0 10.0 8.0 9.0 10.0 8.0 8.0 3.0 3.0 
8.0 5.0 3.0 10.0 9.0 8.0 0.0 10.0 9.0 -154.0 9.0 4.0 1.0 8.0 10.0 4.0 7.0 1.0 5.0 10.0 4.0 9.0 0.0 9.0 4.0 7.0 
8.0 9.0 9.0 4.0 9.0 7.0 2.0 9.0 10.0 9.0 -155.0 7.0 7.0 5.0 7.0 9.0 2.0 7.0 2.0 10.0 6.0 6.0 1.0 4.0 2.0 4.0 
5.0 1.0 0.0 10.0 4.0 7.0 3.0 2.0 5.0 4.0 7.0 -125.0 3.0 5.0 1.0 9.0 6.0 6.0 4.0 3.0 8.0 7.0 8.0 5.0 6.0 6.0 
10.0 10.0 0.0 5.0 8.0 4.0 2.0 5.0 6.0 1.0 7.0 3.0 -138.0 5.0 7.0 6.0 2.0 10.0 3.0 8.0 7.0 6.0 0.0 9.0 7.0 7.0 
10.0 4.0 9.0 10.0 3.0 4.0 5.0 1.0 4.0 8.0 5.0 5.0 5.0 -154.0 9.0 8.0 10.0 3.0 2.0 8.0 8.0 10.0 3.0 10.0 6.0 4.0 
4.0 10.0 10.0 10.0 9.0 1.0 1.0 9.0 1.0 10.0 7.0 1.0 7.0 9.0 -148.0 2.0 5.0 5.0 7.0 6.0 5.0 7.0 3.0 8.0 7.0 4.0 
5.0 9.0 7.0 5.0 6.0 1.0 1.0 4.0 10.0 4.0 9.0 9.0 6.0 8.0 2.0 -154.0 5.0 9.0 5.0 9.0 9.0 8.0 1.0 8.0 6.0 8.0 
1.0 8.0 10.0 1.0 2.0 0.0 6.0 10.0 6.0 7.0 2.0 6.0 2.0 10.0 5.0 5.0 -118.0 6.0 0.0 2.0 10.0 0.0 8.0 1.0 0.0 10.0 
10.0 5.0 3.0 4.0 2.0 3.0 10.0 3.0 2.0 1.0 7.0 6.0 10.0 3.0 5.0 9.0 6.0 -125.0 5.0 2.0 5.0 10.0 1.0 5.0 5.0 3.0 
2.0 9.0 1.0 1.0 4.0 9.0 7.0 5.0 10.0 5.0 2.0 4.0 3.0 2.0 7.0 5.0 0.0 5.0 -106.0 6.0 5.0 0.0 2.0 8.0 2.0 2.0 
9.0 6.0 4.0 9.0 10.0 3.0 3.0 7.0 8.0 10.0 10.0 3.0 8.0 8.0 6.0 9.0 2.0 2.0 6.0 -159.0 4.0 9.0 4.0 5.0 9.0 5.0 
9.0 4.0 7.0 2.0 5.0 2.0 6.0 8.0 9.0 4.0 6.0 8.0 7.0 8.0 5.0 9.0 10.0 5.0 5.0 4.0 -152.0 10.0 3.0 0.0 10.0 6.0 
6.0 1.0 6.0 3.0 1.0 1.0 5.0 6.0 10.0 9.0 6.0 7.0 6.0 10.0 7.0 8.0 0.0 10.0 0.0 9.0 10.0 -140.0 2.0 7.0 1.0 9.0 
7.0 7.0 8.0 0.0 1.0 5.0 7.0 2.0 8.0 0.0 1.0 8.0 0.0 3.0 3.0 1.0 8.0 1.0 2.0 4.0 3.0 2.0 -99.0 8.0 6.0 4.0 
5.0 0.0 0.0 8.0 4.0 5.0 0.0 10.0 8.0 9.0 4.0 5.0 9.0 10.0 8.0 8.0 1.0 5.0 8.0 5.0 0.0 7.0 8.0 -138.0 2.0 9.0 
5.0 0.0 1.0 7.0 2.0 2.0 8.0 2.0 3.0 4.0 2.0 6.0 7.0 6.0 7.0 6.0 0.0 5.0 2.0 9.0 10.0 1.0 6.0 2.0 -105.0 2.0 
7.0 0.0 6.0 7.0 3.0 6.0 9.0 3.0 3.0 7.0 4.0 6.0 7.0 4.0 4.0 8.0 10.0 3.0 2.0 5.0 6.0 9.0 4.0 9.0 2.0 -134.0 

